\ENCODING=ISO-8859-1
\Problem name: IloCplex

Minimize
 obj1: 3000 y(1)#0 + 3000 y(2)#1 + 3000 y(3)#2 + 30 p(1)#3 + 30 p(2)#4
       + 30 p(3)#5 + 3 I_plant(1)#6 + 3 I_plant(2)#7 + 3 I_plant(3)#8
       + 4 I_warehouse(1)(1)(1)#9 + 4 I_warehouse(1)(2)(1)#10
       + 4 I_warehouse(1)(3)(1)#11 + 6 I_customer(2)(1)(1)#12
       + 6 I_customer(2)(2)(1)#13 + 6 I_customer(2)(3)(1)#14
       + 9 I_customer(3)(1)(1)#15 + 9 I_customer(3)(2)(1)#16
       + 9 I_customer(3)(3)(1)#17 + 7 I_customer(4)(1)(1)#18
       + 7 I_customer(4)(2)(1)#19 + 7 I_customer(4)(3)(1)#20
       + 8 I_customer(5)(1)(1)#21 + 8 I_customer(5)(2)(1)#22
       + 8 I_customer(5)(3)(1)#23 + 6 I_customer(6)(1)(1)#24
       + 6 I_customer(6)(2)(1)#25 + 6 I_customer(6)(3)(1)#26
       + 2470 b_customer(2)(1)(1)#27 + 2470 b_customer(2)(2)(1)#28
       + 2470 b_customer(2)(3)(1)#29 + 1050 b_customer(3)(1)(1)#30
       + 1050 b_customer(3)(2)(1)#31 + 1050 b_customer(3)(3)(1)#32
       + 2230 b_customer(4)(1)(1)#33 + 2230 b_customer(4)(2)(1)#34
       + 2230 b_customer(4)(3)(1)#35 + 2650 b_customer(5)(1)(1)#36
       + 2650 b_customer(5)(2)(1)#37 + 2650 b_customer(5)(3)(1)#38
       + 2370 b_customer(6)(1)(1)#39 + 2370 b_customer(6)(2)(1)#40
       + 2370 b_customer(6)(3)(1)#41 + 1739.25271309261 o(1)(1)#45
       + 1739.25271309261 o(1)(2)#46 + 1739.25271309261 o(1)(3)#47
       + 1626.92962355475 x(1)(2)(1)(1)(1)#114
       + 1626.92962355475 x(1)(2)(1)(2)(1)#115
       + 1626.92962355475 x(1)(2)(1)(3)(1)#116
       + 1626.92962355475 x(1)(2)(2)(1)(1)#117
       + 1626.92962355475 x(1)(2)(2)(2)(1)#118
       + 1626.92962355475 x(1)(2)(2)(3)(1)#119
       + 67.8969807870718 x(1)(3)(1)(1)(1)#120
       + 67.8969807870718 x(1)(3)(1)(2)(1)#121
       + 67.8969807870718 x(1)(3)(1)(3)(1)#122
       + 67.8969807870718 x(1)(3)(2)(1)(1)#123
       + 67.8969807870718 x(1)(3)(2)(2)(1)#124
       + 67.8969807870718 x(1)(3)(2)(3)(1)#125
       + 1369.01789615768 x(1)(4)(1)(1)(1)#126
       + 1369.01789615768 x(1)(4)(1)(2)(1)#127
       + 1369.01789615768 x(1)(4)(1)(3)(1)#128
       + 1369.01789615768 x(1)(4)(2)(1)(1)#129
       + 1369.01789615768 x(1)(4)(2)(2)(1)#130
       + 1369.01789615768 x(1)(4)(2)(3)(1)#131
       + 1828.73180100309 x(1)(5)(1)(1)(1)#132
       + 1828.73180100309 x(1)(5)(1)(2)(1)#133
       + 1828.73180100309 x(1)(5)(1)(3)(1)#134
       + 1828.73180100309 x(1)(5)(2)(1)(1)#135
       + 1828.73180100309 x(1)(5)(2)(2)(1)#136
       + 1828.73180100309 x(1)(5)(2)(3)(1)#137
       + 1516.33769325965 x(1)(6)(1)(1)(1)#138
       + 1516.33769325965 x(1)(6)(1)(2)(1)#139
       + 1516.33769325965 x(1)(6)(1)(3)(1)#140
       + 1516.33769325965 x(1)(6)(2)(1)(1)#141
       + 1516.33769325965 x(1)(6)(2)(2)(1)#142
       + 1516.33769325965 x(1)(6)(2)(3)(1)#143
       + 1633.11052902123 x(2)(3)(1)(1)(1)#144
       + 1633.11052902123 x(2)(3)(1)(2)(1)#145
       + 1633.11052902123 x(2)(3)(1)(3)(1)#146
       + 1633.11052902123 x(2)(3)(2)(1)(1)#147
       + 1633.11052902123 x(2)(3)(2)(2)(1)#148
       + 1633.11052902123 x(2)(3)(2)(3)(1)#149
       + 1625.93050281985 x(2)(4)(1)(1)(1)#150
       + 1625.93050281985 x(2)(4)(1)(2)(1)#151
       + 1625.93050281985 x(2)(4)(1)(3)(1)#152
       + 1625.93050281985 x(2)(4)(2)(1)(1)#153
       + 1625.93050281985 x(2)(4)(2)(2)(1)#154
       + 1625.93050281985 x(2)(4)(2)(3)(1)#155
       + 300.665927567458 x(2)(5)(1)(1)(1)#156
       + 300.665927567458 x(2)(5)(1)(2)(1)#157
       + 300.665927567458 x(2)(5)(1)(3)(1)#158
       + 300.665927567458 x(2)(5)(2)(1)(1)#159
       + 300.665927567458 x(2)(5)(2)(2)(1)#160
       + 300.665927567458 x(2)(5)(2)(3)(1)#161
       + 1615.33278305122 x(2)(6)(1)(1)(1)#162
       + 1615.33278305122 x(2)(6)(1)(2)(1)#163
       + 1615.33278305122 x(2)(6)(1)(3)(1)#164
       + 1615.33278305122 x(2)(6)(2)(1)(1)#165
       + 1615.33278305122 x(2)(6)(2)(2)(1)#166
       + 1615.33278305122 x(2)(6)(2)(3)(1)#167
       + 1432.65487818944 x(3)(4)(1)(1)(1)#168
       + 1432.65487818944 x(3)(4)(1)(2)(1)#169
       + 1432.65487818944 x(3)(4)(1)(3)(1)#170
       + 1432.65487818944 x(3)(4)(2)(1)(1)#171
       + 1432.65487818944 x(3)(4)(2)(2)(1)#172
       + 1432.65487818944 x(3)(4)(2)(3)(1)#173
       + 1825.99288059948 x(3)(5)(1)(1)(1)#174
       + 1825.99288059948 x(3)(5)(1)(2)(1)#175
       + 1825.99288059948 x(3)(5)(1)(3)(1)#176
       + 1825.99288059948 x(3)(5)(2)(1)(1)#177
       + 1825.99288059948 x(3)(5)(2)(2)(1)#178
       + 1825.99288059948 x(3)(5)(2)(3)(1)#179
       + 1459.40056187463 x(3)(6)(1)(1)(1)#180
       + 1459.40056187463 x(3)(6)(1)(2)(1)#181
       + 1459.40056187463 x(3)(6)(1)(3)(1)#182
       + 1459.40056187463 x(3)(6)(2)(1)(1)#183
       + 1459.40056187463 x(3)(6)(2)(2)(1)#184
       + 1459.40056187463 x(3)(6)(2)(3)(1)#185
       + 1926.46048493085 x(4)(5)(1)(1)(1)#186
       + 1926.46048493085 x(4)(5)(1)(2)(1)#187
       + 1926.46048493085 x(4)(5)(1)(3)(1)#188
       + 1926.46048493085 x(4)(5)(2)(1)(1)#189
       + 1926.46048493085 x(4)(5)(2)(2)(1)#190
       + 1926.46048493085 x(4)(5)(2)(3)(1)#191
       + 2580.82351198217 x(4)(6)(1)(1)(1)#192
       + 2580.82351198217 x(4)(6)(1)(2)(1)#193
       + 2580.82351198217 x(4)(6)(1)(3)(1)#194
       + 2580.82351198217 x(4)(6)(2)(1)(1)#195
       + 2580.82351198217 x(4)(6)(2)(2)(1)#196
       + 2580.82351198217 x(4)(6)(2)(3)(1)#197
       + 1552.06314304541 x(5)(6)(1)(1)(1)#198
       + 1552.06314304541 x(5)(6)(1)(2)(1)#199
       + 1552.06314304541 x(5)(6)(1)(3)(1)#200
       + 1552.06314304541 x(5)(6)(2)(1)(1)#201
       + 1552.06314304541 x(5)(6)(2)(2)(1)#202
       + 1552.06314304541 x(5)(6)(2)(3)(1)#203
Subject To
 ProductionCapacity(1):          - 120 y(1)#0 + p(1)#3 <= 0
 ProductionCapacity(2):          - 120 y(2)#1 + p(2)#4 <= 0
 ProductionCapacity(3):          - 120 y(3)#2 + p(3)#5 <= 0
 PlantInventoryCapacity(1):      I_plant(1)#6 <= 60
 PlantInventoryCapacity(2):      I_plant(2)#7 <= 60
 PlantInventoryCapacity(3):      I_plant(3)#8 <= 60
 PlantInventoryBalance(1):       - p(1)#3 + I_plant(1)#6 + q(1)(1)(1)#42  = 0
 PlantInventoryBalance(2):       - p(2)#4 - I_plant(1)#6 + I_plant(2)#7
                                 + q(1)(1)(2)#43  = 0
 PlantInventoryBalance(3):       - p(3)#5 - I_plant(2)#7 + I_plant(3)#8
                                 + q(1)(1)(3)#44  = 0
 WarehouseInventoryCapacity(1,1,1): I_warehouse(1)(1)(1)#9 <= 54
 WarehouseInventoryCapacity(1,2,1): I_warehouse(1)(2)(1)#10 <= 54
 WarehouseInventoryCapacity(1,3,1): I_warehouse(1)(3)(1)#11 <= 54
 WarehouseInventoryBalance(1,1,1): I_warehouse(1)(1)(1)#9 - q(1)(1)(1)#42
                                 + w(2)(1)(1)(1)#48 + w(2)(2)(1)(1)#51
                                 + w(3)(1)(1)(1)#54 + w(3)(2)(1)(1)#57
                                 + w(4)(1)(1)(1)#60 + w(4)(2)(1)(1)#63
                                 + w(5)(1)(1)(1)#66 + w(5)(2)(1)(1)#69
                                 + w(6)(1)(1)(1)#72 + w(6)(2)(1)(1)#75  = 0
 WarehouseInventoryBalance(1,2,1): - I_warehouse(1)(1)(1)#9
                                 + I_warehouse(1)(2)(1)#10 - q(1)(1)(2)#43
                                 + w(2)(1)(2)(1)#49 + w(2)(2)(2)(1)#52
                                 + w(3)(1)(2)(1)#55 + w(3)(2)(2)(1)#58
                                 + w(4)(1)(2)(1)#61 + w(4)(2)(2)(1)#64
                                 + w(5)(1)(2)(1)#67 + w(5)(2)(2)(1)#70
                                 + w(6)(1)(2)(1)#73 + w(6)(2)(2)(1)#76  = 0
 WarehouseInventoryBalance(1,3,1): - I_warehouse(1)(2)(1)#10
                                 + I_warehouse(1)(3)(1)#11 - q(1)(1)(3)#44
                                 + w(2)(1)(3)(1)#50 + w(2)(2)(3)(1)#53
                                 + w(3)(1)(3)(1)#56 + w(3)(2)(3)(1)#59
                                 + w(4)(1)(3)(1)#62 + w(4)(2)(3)(1)#65
                                 + w(5)(1)(3)(1)#68 + w(5)(2)(3)(1)#71
                                 + w(6)(1)(3)(1)#74 + w(6)(2)(3)(1)#77  = 0
 CustomerInventoryBalance(2,1,1): I_customer(2)(1)(1)#12
                                 - b_customer(2)(1)(1)#27 - w(2)(1)(1)(1)#48
                                 - w(2)(2)(1)(1)#51  = -5
 CustomerInventoryBalance(3,1,1): I_customer(3)(1)(1)#15
                                 - b_customer(3)(1)(1)#30 - w(3)(1)(1)(1)#54
                                 - w(3)(2)(1)(1)#57  = -3
 CustomerInventoryBalance(4,1,1): I_customer(4)(1)(1)#18
                                 - b_customer(4)(1)(1)#33 - w(4)(1)(1)(1)#60
                                 - w(4)(2)(1)(1)#63  = 2
 CustomerInventoryBalance(5,1,1): I_customer(5)(1)(1)#21
                                 - b_customer(5)(1)(1)#36 - w(5)(1)(1)(1)#66
                                 - w(5)(2)(1)(1)#69  = -3
 CustomerInventoryBalance(6,1,1): I_customer(6)(1)(1)#24
                                 - b_customer(6)(1)(1)#39 - w(6)(1)(1)(1)#72
                                 - w(6)(2)(1)(1)#75  = -2
 CustomerInventoryBalance(2,2,1): - I_customer(2)(1)(1)#12
                                 + I_customer(2)(2)(1)#13
                                 - b_customer(2)(2)(1)#28 - w(2)(1)(2)(1)#49
                                 - w(2)(2)(2)(1)#52  = -8
 CustomerInventoryBalance(3,2,1): - I_customer(3)(1)(1)#15
                                 + I_customer(3)(2)(1)#16
                                 - b_customer(3)(2)(1)#31 - w(3)(1)(2)(1)#55
                                 - w(3)(2)(2)(1)#58  = -18
 CustomerInventoryBalance(4,2,1): - I_customer(4)(1)(1)#18
                                 + I_customer(4)(2)(1)#19
                                 - b_customer(4)(2)(1)#34 - w(4)(1)(2)(1)#61
                                 - w(4)(2)(2)(1)#64  = -13
 CustomerInventoryBalance(5,2,1): - I_customer(5)(1)(1)#21
                                 + I_customer(5)(2)(1)#22
                                 - b_customer(5)(2)(1)#37 - w(5)(1)(2)(1)#67
                                 - w(5)(2)(2)(1)#70  = -6
 CustomerInventoryBalance(6,2,1): - I_customer(6)(1)(1)#24
                                 + I_customer(6)(2)(1)#25
                                 - b_customer(6)(2)(1)#40 - w(6)(1)(2)(1)#73
                                 - w(6)(2)(2)(1)#76  = -12
 CustomerInventoryBalance(2,3,1): - I_customer(2)(2)(1)#13
                                 + I_customer(2)(3)(1)#14
                                 - b_customer(2)(3)(1)#29 - w(2)(1)(3)(1)#50
                                 - w(2)(2)(3)(1)#53  = -9
 CustomerInventoryBalance(3,3,1): - I_customer(3)(2)(1)#16
                                 + I_customer(3)(3)(1)#17
                                 - b_customer(3)(3)(1)#32 - w(3)(1)(3)(1)#56
                                 - w(3)(2)(3)(1)#59  = -12
 CustomerInventoryBalance(4,3,1): - I_customer(4)(2)(1)#19
                                 + I_customer(4)(3)(1)#20
                                 - b_customer(4)(3)(1)#35 - w(4)(1)(3)(1)#62
                                 - w(4)(2)(3)(1)#65  = -15
 CustomerInventoryBalance(5,3,1): - I_customer(5)(2)(1)#22
                                 + I_customer(5)(3)(1)#23
                                 - b_customer(5)(3)(1)#38 - w(5)(1)(3)(1)#68
                                 - w(5)(2)(3)(1)#71  = -7
 CustomerInventoryBalance(6,3,1): - I_customer(6)(2)(1)#25
                                 + I_customer(6)(3)(1)#26
                                 - b_customer(6)(3)(1)#41 - w(6)(1)(3)(1)#74
                                 - w(6)(2)(3)(1)#77  = -15
 CustomerInventoryCapacity(2,1,1): I_customer(2)(1)(1)#12 <= 10
 CustomerInventoryCapacity(3,1,1): I_customer(3)(1)(1)#15 <= 27
 CustomerInventoryCapacity(4,1,1): I_customer(4)(1)(1)#18 <= 32
 CustomerInventoryCapacity(5,1,1): I_customer(5)(1)(1)#21 <= 8
 CustomerInventoryCapacity(6,1,1): I_customer(6)(1)(1)#24 <= 24
 CustomerInventoryCapacity(2,2,1): I_customer(2)(2)(1)#13 <= 12
 CustomerInventoryCapacity(3,2,1): I_customer(3)(2)(1)#16 <= 27
 CustomerInventoryCapacity(4,2,1): I_customer(4)(2)(1)#19 <= 32
 CustomerInventoryCapacity(5,2,1): I_customer(5)(2)(1)#22 <= 8
 CustomerInventoryCapacity(6,2,1): I_customer(6)(2)(1)#25 <= 27
 CustomerInventoryCapacity(2,3,1): I_customer(2)(3)(1)#14 <= 11
 CustomerInventoryCapacity(3,3,1): I_customer(3)(3)(1)#17 <= 33
 CustomerInventoryCapacity(4,3,1): I_customer(4)(3)(1)#20 <= 30
 CustomerInventoryCapacity(5,3,1): I_customer(5)(3)(1)#23 <= 7
 CustomerInventoryCapacity(6,3,1): I_customer(6)(3)(1)#26 <= 24
 WarehouseCoverage(1,1):         o(1)(1)#45 <= 1
 WarehouseCoverage(1,2):         o(1)(2)#46 <= 1
 WarehouseCoverage(1,3):         o(1)(3)#47 <= 1
 VehicleCapacity(1,1):           q(1)(1)(1)#42 - 40 o(1)(1)#45 <= 0
 VehicleCapacity(1,2):           q(1)(1)(2)#43 - 40 o(1)(2)#46 <= 0
 VehicleCapacity(1,3):           q(1)(1)(3)#44 - 40 o(1)(3)#47 <= 0
 FleetSize(1):                   o(1)(1)#45 <= 2
 FleetSize(2):                   o(1)(2)#46 <= 2
 FleetSize(3):                   o(1)(3)#47 <= 2
 CustomerVisit(2,1,1,1):         w(2)(1)(1)(1)#48 - 20 z(2)(1)(1)(1)#84 <= 0
 CustomerVisit(3,1,1,1):         w(3)(1)(1)(1)#54 - 22 z(3)(1)(1)(1)#90 <= 0
 CustomerVisit(4,1,1,1):         w(4)(1)(1)(1)#60 - 22 z(4)(1)(1)(1)#96 <= 0
 CustomerVisit(5,1,1,1):         w(5)(1)(1)(1)#66 - 14 z(5)(1)(1)(1)#102 <= 0
 CustomerVisit(6,1,1,1):         w(6)(1)(1)(1)#72 - 22 z(6)(1)(1)(1)#108 <= 0
 CustomerVisit(2,2,1,1):         w(2)(2)(1)(1)#51 - 20 z(2)(2)(1)(1)#87 <= 0
 CustomerVisit(3,2,1,1):         w(3)(2)(1)(1)#57 - 22 z(3)(2)(1)(1)#93 <= 0
 CustomerVisit(4,2,1,1):         w(4)(2)(1)(1)#63 - 22 z(4)(2)(1)(1)#99 <= 0
 CustomerVisit(5,2,1,1):         w(5)(2)(1)(1)#69 - 14 z(5)(2)(1)(1)#105 <= 0
 CustomerVisit(6,2,1,1):         w(6)(2)(1)(1)#75 - 22 z(6)(2)(1)(1)#111 <= 0
 CustomerVisit(2,1,2,1):         w(2)(1)(2)(1)#49 - 17 z(2)(1)(2)(1)#85 <= 0
 CustomerVisit(3,1,2,1):         w(3)(1)(2)(1)#55 - 22 z(3)(1)(2)(1)#91 <= 0
 CustomerVisit(4,1,2,1):         w(4)(1)(2)(1)#61 - 22 z(4)(1)(2)(1)#97 <= 0
 CustomerVisit(5,1,2,1):         w(5)(1)(2)(1)#67 - 13 z(5)(1)(2)(1)#103 <= 0
 CustomerVisit(6,1,2,1):         w(6)(1)(2)(1)#73 - 22 z(6)(1)(2)(1)#109 <= 0
 CustomerVisit(2,2,2,1):         w(2)(2)(2)(1)#52 - 17 z(2)(2)(2)(1)#88 <= 0
 CustomerVisit(3,2,2,1):         w(3)(2)(2)(1)#58 - 22 z(3)(2)(2)(1)#94 <= 0
 CustomerVisit(4,2,2,1):         w(4)(2)(2)(1)#64 - 22 z(4)(2)(2)(1)#100 <= 0
 CustomerVisit(5,2,2,1):         w(5)(2)(2)(1)#70 - 13 z(5)(2)(2)(1)#106 <= 0
 CustomerVisit(6,2,2,1):         w(6)(2)(2)(1)#76 - 22 z(6)(2)(2)(1)#112 <= 0
 CustomerVisit(2,1,3,1):         w(2)(1)(3)(1)#50 - 9 z(2)(1)(3)(1)#86 <= 0
 CustomerVisit(3,1,3,1):         w(3)(1)(3)(1)#56 - 12 z(3)(1)(3)(1)#92 <= 0
 CustomerVisit(4,1,3,1):         w(4)(1)(3)(1)#62 - 15 z(4)(1)(3)(1)#98 <= 0
 CustomerVisit(5,1,3,1):         w(5)(1)(3)(1)#68 - 7 z(5)(1)(3)(1)#104 <= 0
 CustomerVisit(6,1,3,1):         w(6)(1)(3)(1)#74 - 15 z(6)(1)(3)(1)#110 <= 0
 CustomerVisit(2,2,3,1):         w(2)(2)(3)(1)#53 - 9 z(2)(2)(3)(1)#89 <= 0
 CustomerVisit(3,2,3,1):         w(3)(2)(3)(1)#59 - 12 z(3)(2)(3)(1)#95 <= 0
 CustomerVisit(4,2,3,1):         w(4)(2)(3)(1)#65 - 15 z(4)(2)(3)(1)#101 <= 0
 CustomerVisit(5,2,3,1):         w(5)(2)(3)(1)#71 - 7 z(5)(2)(3)(1)#107 <= 0
 CustomerVisit(6,2,3,1):         w(6)(2)(3)(1)#77 - 15 z(6)(2)(3)(1)#113 <= 0
 VehicleCapacity(1,1,1,1):       w(2)(1)(1)(1)#48 + w(3)(1)(1)(1)#54
                                 + w(4)(1)(1)(1)#60 + w(5)(1)(1)(1)#66
                                 + w(6)(1)(1)(1)#72 - 22 z(1)(1)(1)(1)#78 <= 0
 VehicleCapacity(1,2,1,1):       w(2)(2)(1)(1)#51 + w(3)(2)(1)(1)#57
                                 + w(4)(2)(1)(1)#63 + w(5)(2)(1)(1)#69
                                 + w(6)(2)(1)(1)#75 - 22 z(1)(2)(1)(1)#81 <= 0
 VehicleCapacity(1,1,2,1):       w(2)(1)(2)(1)#49 + w(3)(1)(2)(1)#55
                                 + w(4)(1)(2)(1)#61 + w(5)(1)(2)(1)#67
                                 + w(6)(1)(2)(1)#73 - 22 z(1)(1)(2)(1)#79 <= 0
 VehicleCapacity(1,2,2,1):       w(2)(2)(2)(1)#52 + w(3)(2)(2)(1)#58
                                 + w(4)(2)(2)(1)#64 + w(5)(2)(2)(1)#70
                                 + w(6)(2)(2)(1)#76 - 22 z(1)(2)(2)(1)#82 <= 0
 VehicleCapacity(1,1,3,1):       w(2)(1)(3)(1)#50 + w(3)(1)(3)(1)#56
                                 + w(4)(1)(3)(1)#62 + w(5)(1)(3)(1)#68
                                 + w(6)(1)(3)(1)#74 - 22 z(1)(1)(3)(1)#80 <= 0
 VehicleCapacity(1,2,3,1):       w(2)(2)(3)(1)#53 + w(3)(2)(3)(1)#59
                                 + w(4)(2)(3)(1)#65 + w(5)(2)(3)(1)#71
                                 + w(6)(2)(3)(1)#77 - 22 z(1)(2)(3)(1)#83 <= 0
 PreventSplitDeliveries(2,1,1):  z(2)(1)(1)(1)#84 + z(2)(2)(1)(1)#87 <= 1
 PreventSplitDeliveries(3,1,1):  z(3)(1)(1)(1)#90 + z(3)(2)(1)(1)#93 <= 1
 PreventSplitDeliveries(4,1,1):  z(4)(1)(1)(1)#96 + z(4)(2)(1)(1)#99 <= 1
 PreventSplitDeliveries(5,1,1):  z(5)(1)(1)(1)#102 + z(5)(2)(1)(1)#105 <= 1
 PreventSplitDeliveries(6,1,1):  z(6)(1)(1)(1)#108 + z(6)(2)(1)(1)#111 <= 1
 PreventSplitDeliveries(2,2,1):  z(2)(1)(2)(1)#85 + z(2)(2)(2)(1)#88 <= 1
 PreventSplitDeliveries(3,2,1):  z(3)(1)(2)(1)#91 + z(3)(2)(2)(1)#94 <= 1
 PreventSplitDeliveries(4,2,1):  z(4)(1)(2)(1)#97 + z(4)(2)(2)(1)#100 <= 1
 PreventSplitDeliveries(5,2,1):  z(5)(1)(2)(1)#103 + z(5)(2)(2)(1)#106 <= 1
 PreventSplitDeliveries(6,2,1):  z(6)(1)(2)(1)#109 + z(6)(2)(2)(1)#112 <= 1
 PreventSplitDeliveries(2,3,1):  z(2)(1)(3)(1)#86 + z(2)(2)(3)(1)#89 <= 1
 PreventSplitDeliveries(3,3,1):  z(3)(1)(3)(1)#92 + z(3)(2)(3)(1)#95 <= 1
 PreventSplitDeliveries(4,3,1):  z(4)(1)(3)(1)#98 + z(4)(2)(3)(1)#101 <= 1
 PreventSplitDeliveries(5,3,1):  z(5)(1)(3)(1)#104 + z(5)(2)(3)(1)#107 <= 1
 PreventSplitDeliveries(6,3,1):  z(6)(1)(3)(1)#110 + z(6)(2)(3)(1)#113 <= 1
 DegreeConstraint(1,1,1,1):      - 2 z(1)(1)(1)(1)#78 + x(1)(2)(1)(1)(1)#114
                                 + x(1)(3)(1)(1)(1)#120 + x(1)(4)(1)(1)(1)#126
                                 + x(1)(5)(1)(1)(1)#132 + x(1)(6)(1)(1)(1)#138
                                  = 0
 DegreeConstraint(2,1,1,1):      - 2 z(2)(1)(1)(1)#84 + x(1)(2)(1)(1)(1)#114
                                 + x(2)(3)(1)(1)(1)#144 + x(2)(4)(1)(1)(1)#150
                                 + x(2)(5)(1)(1)(1)#156 + x(2)(6)(1)(1)(1)#162
                                  = 0
 DegreeConstraint(3,1,1,1):      - 2 z(3)(1)(1)(1)#90 + x(1)(3)(1)(1)(1)#120
                                 + x(2)(3)(1)(1)(1)#144 + x(3)(4)(1)(1)(1)#168
                                 + x(3)(5)(1)(1)(1)#174 + x(3)(6)(1)(1)(1)#180
                                  = 0
 DegreeConstraint(4,1,1,1):      - 2 z(4)(1)(1)(1)#96 + x(1)(4)(1)(1)(1)#126
                                 + x(2)(4)(1)(1)(1)#150 + x(3)(4)(1)(1)(1)#168
                                 + x(4)(5)(1)(1)(1)#186 + x(4)(6)(1)(1)(1)#192
                                  = 0
 DegreeConstraint(5,1,1,1):      - 2 z(5)(1)(1)(1)#102 + x(1)(5)(1)(1)(1)#132
                                 + x(2)(5)(1)(1)(1)#156 + x(3)(5)(1)(1)(1)#174
                                 + x(4)(5)(1)(1)(1)#186 + x(5)(6)(1)(1)(1)#198
                                  = 0
 DegreeConstraint(6,1,1,1):      - 2 z(6)(1)(1)(1)#108 + x(1)(6)(1)(1)(1)#138
                                 + x(2)(6)(1)(1)(1)#162 + x(3)(6)(1)(1)(1)#180
                                 + x(4)(6)(1)(1)(1)#192 + x(5)(6)(1)(1)(1)#198
                                  = 0
 DegreeConstraint(1,2,1,1):      - 2 z(1)(2)(1)(1)#81 + x(1)(2)(2)(1)(1)#117
                                 + x(1)(3)(2)(1)(1)#123 + x(1)(4)(2)(1)(1)#129
                                 + x(1)(5)(2)(1)(1)#135 + x(1)(6)(2)(1)(1)#141
                                  = 0
 DegreeConstraint(2,2,1,1):      - 2 z(2)(2)(1)(1)#87 + x(1)(2)(2)(1)(1)#117
                                 + x(2)(3)(2)(1)(1)#147 + x(2)(4)(2)(1)(1)#153
                                 + x(2)(5)(2)(1)(1)#159 + x(2)(6)(2)(1)(1)#165
                                  = 0
 DegreeConstraint(3,2,1,1):      - 2 z(3)(2)(1)(1)#93 + x(1)(3)(2)(1)(1)#123
                                 + x(2)(3)(2)(1)(1)#147 + x(3)(4)(2)(1)(1)#171
                                 + x(3)(5)(2)(1)(1)#177 + x(3)(6)(2)(1)(1)#183
                                  = 0
 DegreeConstraint(4,2,1,1):      - 2 z(4)(2)(1)(1)#99 + x(1)(4)(2)(1)(1)#129
                                 + x(2)(4)(2)(1)(1)#153 + x(3)(4)(2)(1)(1)#171
                                 + x(4)(5)(2)(1)(1)#189 + x(4)(6)(2)(1)(1)#195
                                  = 0
 DegreeConstraint(5,2,1,1):      - 2 z(5)(2)(1)(1)#105 + x(1)(5)(2)(1)(1)#135
                                 + x(2)(5)(2)(1)(1)#159 + x(3)(5)(2)(1)(1)#177
                                 + x(4)(5)(2)(1)(1)#189 + x(5)(6)(2)(1)(1)#201
                                  = 0
 DegreeConstraint(6,2,1,1):      - 2 z(6)(2)(1)(1)#111 + x(1)(6)(2)(1)(1)#141
                                 + x(2)(6)(2)(1)(1)#165 + x(3)(6)(2)(1)(1)#183
                                 + x(4)(6)(2)(1)(1)#195 + x(5)(6)(2)(1)(1)#201
                                  = 0
 DegreeConstraint(1,1,2,1):      - 2 z(1)(1)(2)(1)#79 + x(1)(2)(1)(2)(1)#115
                                 + x(1)(3)(1)(2)(1)#121 + x(1)(4)(1)(2)(1)#127
                                 + x(1)(5)(1)(2)(1)#133 + x(1)(6)(1)(2)(1)#139
                                  = 0
 DegreeConstraint(2,1,2,1):      - 2 z(2)(1)(2)(1)#85 + x(1)(2)(1)(2)(1)#115
                                 + x(2)(3)(1)(2)(1)#145 + x(2)(4)(1)(2)(1)#151
                                 + x(2)(5)(1)(2)(1)#157 + x(2)(6)(1)(2)(1)#163
                                  = 0
 DegreeConstraint(3,1,2,1):      - 2 z(3)(1)(2)(1)#91 + x(1)(3)(1)(2)(1)#121
                                 + x(2)(3)(1)(2)(1)#145 + x(3)(4)(1)(2)(1)#169
                                 + x(3)(5)(1)(2)(1)#175 + x(3)(6)(1)(2)(1)#181
                                  = 0
 DegreeConstraint(4,1,2,1):      - 2 z(4)(1)(2)(1)#97 + x(1)(4)(1)(2)(1)#127
                                 + x(2)(4)(1)(2)(1)#151 + x(3)(4)(1)(2)(1)#169
                                 + x(4)(5)(1)(2)(1)#187 + x(4)(6)(1)(2)(1)#193
                                  = 0
 DegreeConstraint(5,1,2,1):      - 2 z(5)(1)(2)(1)#103 + x(1)(5)(1)(2)(1)#133
                                 + x(2)(5)(1)(2)(1)#157 + x(3)(5)(1)(2)(1)#175
                                 + x(4)(5)(1)(2)(1)#187 + x(5)(6)(1)(2)(1)#199
                                  = 0
 DegreeConstraint(6,1,2,1):      - 2 z(6)(1)(2)(1)#109 + x(1)(6)(1)(2)(1)#139
                                 + x(2)(6)(1)(2)(1)#163 + x(3)(6)(1)(2)(1)#181
                                 + x(4)(6)(1)(2)(1)#193 + x(5)(6)(1)(2)(1)#199
                                  = 0
 DegreeConstraint(1,2,2,1):      - 2 z(1)(2)(2)(1)#82 + x(1)(2)(2)(2)(1)#118
                                 + x(1)(3)(2)(2)(1)#124 + x(1)(4)(2)(2)(1)#130
                                 + x(1)(5)(2)(2)(1)#136 + x(1)(6)(2)(2)(1)#142
                                  = 0
 DegreeConstraint(2,2,2,1):      - 2 z(2)(2)(2)(1)#88 + x(1)(2)(2)(2)(1)#118
                                 + x(2)(3)(2)(2)(1)#148 + x(2)(4)(2)(2)(1)#154
                                 + x(2)(5)(2)(2)(1)#160 + x(2)(6)(2)(2)(1)#166
                                  = 0
 DegreeConstraint(3,2,2,1):      - 2 z(3)(2)(2)(1)#94 + x(1)(3)(2)(2)(1)#124
                                 + x(2)(3)(2)(2)(1)#148 + x(3)(4)(2)(2)(1)#172
                                 + x(3)(5)(2)(2)(1)#178 + x(3)(6)(2)(2)(1)#184
                                  = 0
 DegreeConstraint(4,2,2,1):      - 2 z(4)(2)(2)(1)#100 + x(1)(4)(2)(2)(1)#130
                                 + x(2)(4)(2)(2)(1)#154 + x(3)(4)(2)(2)(1)#172
                                 + x(4)(5)(2)(2)(1)#190 + x(4)(6)(2)(2)(1)#196
                                  = 0
 DegreeConstraint(5,2,2,1):      - 2 z(5)(2)(2)(1)#106 + x(1)(5)(2)(2)(1)#136
                                 + x(2)(5)(2)(2)(1)#160 + x(3)(5)(2)(2)(1)#178
                                 + x(4)(5)(2)(2)(1)#190 + x(5)(6)(2)(2)(1)#202
                                  = 0
 DegreeConstraint(6,2,2,1):      - 2 z(6)(2)(2)(1)#112 + x(1)(6)(2)(2)(1)#142
                                 + x(2)(6)(2)(2)(1)#166 + x(3)(6)(2)(2)(1)#184
                                 + x(4)(6)(2)(2)(1)#196 + x(5)(6)(2)(2)(1)#202
                                  = 0
 DegreeConstraint(1,1,3,1):      - 2 z(1)(1)(3)(1)#80 + x(1)(2)(1)(3)(1)#116
                                 + x(1)(3)(1)(3)(1)#122 + x(1)(4)(1)(3)(1)#128
                                 + x(1)(5)(1)(3)(1)#134 + x(1)(6)(1)(3)(1)#140
                                  = 0
 DegreeConstraint(2,1,3,1):      - 2 z(2)(1)(3)(1)#86 + x(1)(2)(1)(3)(1)#116
                                 + x(2)(3)(1)(3)(1)#146 + x(2)(4)(1)(3)(1)#152
                                 + x(2)(5)(1)(3)(1)#158 + x(2)(6)(1)(3)(1)#164
                                  = 0
 DegreeConstraint(3,1,3,1):      - 2 z(3)(1)(3)(1)#92 + x(1)(3)(1)(3)(1)#122
                                 + x(2)(3)(1)(3)(1)#146 + x(3)(4)(1)(3)(1)#170
                                 + x(3)(5)(1)(3)(1)#176 + x(3)(6)(1)(3)(1)#182
                                  = 0
 DegreeConstraint(4,1,3,1):      - 2 z(4)(1)(3)(1)#98 + x(1)(4)(1)(3)(1)#128
                                 + x(2)(4)(1)(3)(1)#152 + x(3)(4)(1)(3)(1)#170
                                 + x(4)(5)(1)(3)(1)#188 + x(4)(6)(1)(3)(1)#194
                                  = 0
 DegreeConstraint(5,1,3,1):      - 2 z(5)(1)(3)(1)#104 + x(1)(5)(1)(3)(1)#134
                                 + x(2)(5)(1)(3)(1)#158 + x(3)(5)(1)(3)(1)#176
                                 + x(4)(5)(1)(3)(1)#188 + x(5)(6)(1)(3)(1)#200
                                  = 0
 DegreeConstraint(6,1,3,1):      - 2 z(6)(1)(3)(1)#110 + x(1)(6)(1)(3)(1)#140
                                 + x(2)(6)(1)(3)(1)#164 + x(3)(6)(1)(3)(1)#182
                                 + x(4)(6)(1)(3)(1)#194 + x(5)(6)(1)(3)(1)#200
                                  = 0
 DegreeConstraint(1,2,3,1):      - 2 z(1)(2)(3)(1)#83 + x(1)(2)(2)(3)(1)#119
                                 + x(1)(3)(2)(3)(1)#125 + x(1)(4)(2)(3)(1)#131
                                 + x(1)(5)(2)(3)(1)#137 + x(1)(6)(2)(3)(1)#143
                                  = 0
 DegreeConstraint(2,2,3,1):      - 2 z(2)(2)(3)(1)#89 + x(1)(2)(2)(3)(1)#119
                                 + x(2)(3)(2)(3)(1)#149 + x(2)(4)(2)(3)(1)#155
                                 + x(2)(5)(2)(3)(1)#161 + x(2)(6)(2)(3)(1)#167
                                  = 0
 DegreeConstraint(3,2,3,1):      - 2 z(3)(2)(3)(1)#95 + x(1)(3)(2)(3)(1)#125
                                 + x(2)(3)(2)(3)(1)#149 + x(3)(4)(2)(3)(1)#173
                                 + x(3)(5)(2)(3)(1)#179 + x(3)(6)(2)(3)(1)#185
                                  = 0
 DegreeConstraint(4,2,3,1):      - 2 z(4)(2)(3)(1)#101 + x(1)(4)(2)(3)(1)#131
                                 + x(2)(4)(2)(3)(1)#155 + x(3)(4)(2)(3)(1)#173
                                 + x(4)(5)(2)(3)(1)#191 + x(4)(6)(2)(3)(1)#197
                                  = 0
 DegreeConstraint(5,2,3,1):      - 2 z(5)(2)(3)(1)#107 + x(1)(5)(2)(3)(1)#137
                                 + x(2)(5)(2)(3)(1)#161 + x(3)(5)(2)(3)(1)#179
                                 + x(4)(5)(2)(3)(1)#191 + x(5)(6)(2)(3)(1)#203
                                  = 0
 DegreeConstraint(6,2,3,1):      - 2 z(6)(2)(3)(1)#113 + x(1)(6)(2)(3)(1)#143
                                 + x(2)(6)(2)(3)(1)#167 + x(3)(6)(2)(3)(1)#185
                                 + x(4)(6)(2)(3)(1)#197 + x(5)(6)(2)(3)(1)#203
                                  = 0
Bounds
 0 <= y(1)#0 <= 1
 0 <= y(2)#1 <= 1
 0 <= y(3)#2 <= 1
 0 <= p(1)#3 <= 120
 0 <= p(2)#4 <= 120
 0 <= p(3)#5 <= 120
 0 <= I_plant(1)#6 <= 60
 0 <= I_plant(2)#7 <= 60
 0 <= I_plant(3)#8 <= 60
 0 <= I_warehouse(1)(1)(1)#9 <= 54
 0 <= I_warehouse(1)(2)(1)#10 <= 54
 0 <= I_warehouse(1)(3)(1)#11 <= 54
 0 <= I_customer(2)(1)(1)#12 <= 20
 0 <= I_customer(2)(2)(1)#13 <= 20
 0 <= I_customer(2)(3)(1)#14 <= 20
 0 <= I_customer(3)(1)(1)#15 <= 45
 0 <= I_customer(3)(2)(1)#16 <= 45
 0 <= I_customer(3)(3)(1)#17 <= 45
 0 <= I_customer(4)(1)(1)#18 <= 45
 0 <= I_customer(4)(2)(1)#19 <= 45
 0 <= I_customer(4)(3)(1)#20 <= 45
 0 <= I_customer(5)(1)(1)#21 <= 14
 0 <= I_customer(5)(2)(1)#22 <= 14
 0 <= I_customer(5)(3)(1)#23 <= 14
 0 <= I_customer(6)(1)(1)#24 <= 39
 0 <= I_customer(6)(2)(1)#25 <= 39
 0 <= I_customer(6)(3)(1)#26 <= 39
 0 <= b_customer(2)(1)(1)#27 <= 10
 0 <= b_customer(2)(2)(1)#28 <= 8
 0 <= b_customer(2)(3)(1)#29 <= 9
 0 <= b_customer(3)(1)(1)#30 <= 18
 0 <= b_customer(3)(2)(1)#31 <= 18
 0 <= b_customer(3)(3)(1)#32 <= 12
 0 <= b_customer(4)(1)(1)#33 <= 13
 0 <= b_customer(4)(2)(1)#34 <= 13
 0 <= b_customer(4)(3)(1)#35 <= 15
 0 <= b_customer(5)(1)(1)#36 <= 6
 0 <= b_customer(5)(2)(1)#37 <= 6
 0 <= b_customer(5)(3)(1)#38 <= 7
 0 <= b_customer(6)(1)(1)#39 <= 15
 0 <= b_customer(6)(2)(1)#40 <= 12
 0 <= b_customer(6)(3)(1)#41 <= 15
 0 <= q(1)(1)(1)#42 <= 54
 0 <= q(1)(1)(2)#43 <= 54
 0 <= q(1)(1)(3)#44 <= 54
 0 <= o(1)(1)#45 <= 1
 0 <= o(1)(2)#46 <= 1
 0 <= o(1)(3)#47 <= 1
 0 <= w(2)(1)(1)(1)#48 <= 10
 0 <= w(2)(1)(2)(1)#49 <= 8
 0 <= w(2)(1)(3)(1)#50 <= 9
 0 <= w(2)(2)(1)(1)#51 <= 10
 0 <= w(2)(2)(2)(1)#52 <= 8
 0 <= w(2)(2)(3)(1)#53 <= 9
 0 <= w(3)(1)(1)(1)#54 <= 18
 0 <= w(3)(1)(2)(1)#55 <= 18
 0 <= w(3)(1)(3)(1)#56 <= 12
 0 <= w(3)(2)(1)(1)#57 <= 18
 0 <= w(3)(2)(2)(1)#58 <= 18
 0 <= w(3)(2)(3)(1)#59 <= 12
 0 <= w(4)(1)(1)(1)#60 <= 13
 0 <= w(4)(1)(2)(1)#61 <= 13
 0 <= w(4)(1)(3)(1)#62 <= 15
 0 <= w(4)(2)(1)(1)#63 <= 13
 0 <= w(4)(2)(2)(1)#64 <= 13
 0 <= w(4)(2)(3)(1)#65 <= 15
 0 <= w(5)(1)(1)(1)#66 <= 6
 0 <= w(5)(1)(2)(1)#67 <= 6
 0 <= w(5)(1)(3)(1)#68 <= 7
 0 <= w(5)(2)(1)(1)#69 <= 6
 0 <= w(5)(2)(2)(1)#70 <= 6
 0 <= w(5)(2)(3)(1)#71 <= 7
 0 <= w(6)(1)(1)(1)#72 <= 15
 0 <= w(6)(1)(2)(1)#73 <= 12
 0 <= w(6)(1)(3)(1)#74 <= 15
 0 <= w(6)(2)(1)(1)#75 <= 15
 0 <= w(6)(2)(2)(1)#76 <= 12
 0 <= w(6)(2)(3)(1)#77 <= 15
 0 <= z(1)(1)(1)(1)#78 <= 1
 0 <= z(1)(1)(2)(1)#79 <= 1
 0 <= z(1)(1)(3)(1)#80 <= 1
 0 <= z(1)(2)(1)(1)#81 <= 1
 0 <= z(1)(2)(2)(1)#82 <= 1
 0 <= z(1)(2)(3)(1)#83 <= 1
 0 <= z(2)(1)(1)(1)#84 <= 1
 0 <= z(2)(1)(2)(1)#85 <= 1
 0 <= z(2)(1)(3)(1)#86 <= 1
 0 <= z(2)(2)(1)(1)#87 <= 1
 0 <= z(2)(2)(2)(1)#88 <= 1
 0 <= z(2)(2)(3)(1)#89 <= 1
 0 <= z(3)(1)(1)(1)#90 <= 1
 0 <= z(3)(1)(2)(1)#91 <= 1
 0 <= z(3)(1)(3)(1)#92 <= 1
 0 <= z(3)(2)(1)(1)#93 <= 1
 0 <= z(3)(2)(2)(1)#94 <= 1
 0 <= z(3)(2)(3)(1)#95 <= 1
 0 <= z(4)(1)(1)(1)#96 <= 1
 0 <= z(4)(1)(2)(1)#97 <= 1
 0 <= z(4)(1)(3)(1)#98 <= 1
 0 <= z(4)(2)(1)(1)#99 <= 1
 0 <= z(4)(2)(2)(1)#100 <= 1
 0 <= z(4)(2)(3)(1)#101 <= 1
 0 <= z(5)(1)(1)(1)#102 <= 1
 0 <= z(5)(1)(2)(1)#103 <= 1
 0 <= z(5)(1)(3)(1)#104 <= 1
 0 <= z(5)(2)(1)(1)#105 <= 1
 0 <= z(5)(2)(2)(1)#106 <= 1
 0 <= z(5)(2)(3)(1)#107 <= 1
 0 <= z(6)(1)(1)(1)#108 <= 1
 0 <= z(6)(1)(2)(1)#109 <= 1
 0 <= z(6)(1)(3)(1)#110 <= 1
 0 <= z(6)(2)(1)(1)#111 <= 1
 0 <= z(6)(2)(2)(1)#112 <= 1
 0 <= z(6)(2)(3)(1)#113 <= 1
 0 <= x(1)(2)(1)(1)(1)#114 <= 2
 0 <= x(1)(2)(1)(2)(1)#115 <= 2
 0 <= x(1)(2)(1)(3)(1)#116 <= 2
 0 <= x(1)(2)(2)(1)(1)#117 <= 2
 0 <= x(1)(2)(2)(2)(1)#118 <= 2
 0 <= x(1)(2)(2)(3)(1)#119 <= 2
 0 <= x(1)(3)(1)(1)(1)#120 <= 2
 0 <= x(1)(3)(1)(2)(1)#121 <= 2
 0 <= x(1)(3)(1)(3)(1)#122 <= 2
 0 <= x(1)(3)(2)(1)(1)#123 <= 2
 0 <= x(1)(3)(2)(2)(1)#124 <= 2
 0 <= x(1)(3)(2)(3)(1)#125 <= 2
 0 <= x(1)(4)(1)(1)(1)#126 <= 2
 0 <= x(1)(4)(1)(2)(1)#127 <= 2
 0 <= x(1)(4)(1)(3)(1)#128 <= 2
 0 <= x(1)(4)(2)(1)(1)#129 <= 2
 0 <= x(1)(4)(2)(2)(1)#130 <= 2
 0 <= x(1)(4)(2)(3)(1)#131 <= 2
 0 <= x(1)(5)(1)(1)(1)#132 <= 2
 0 <= x(1)(5)(1)(2)(1)#133 <= 2
 0 <= x(1)(5)(1)(3)(1)#134 <= 2
 0 <= x(1)(5)(2)(1)(1)#135 <= 2
 0 <= x(1)(5)(2)(2)(1)#136 <= 2
 0 <= x(1)(5)(2)(3)(1)#137 <= 2
 0 <= x(1)(6)(1)(1)(1)#138 <= 2
 0 <= x(1)(6)(1)(2)(1)#139 <= 2
 0 <= x(1)(6)(1)(3)(1)#140 <= 2
 0 <= x(1)(6)(2)(1)(1)#141 <= 2
 0 <= x(1)(6)(2)(2)(1)#142 <= 2
 0 <= x(1)(6)(2)(3)(1)#143 <= 2
 0 <= x(2)(3)(1)(1)(1)#144 <= 1
 0 <= x(2)(3)(1)(2)(1)#145 <= 1
 0 <= x(2)(3)(1)(3)(1)#146 <= 1
 0 <= x(2)(3)(2)(1)(1)#147 <= 1
 0 <= x(2)(3)(2)(2)(1)#148 <= 1
 0 <= x(2)(3)(2)(3)(1)#149 <= 1
 0 <= x(2)(4)(1)(1)(1)#150 <= 1
 0 <= x(2)(4)(1)(2)(1)#151 <= 1
 0 <= x(2)(4)(1)(3)(1)#152 <= 1
 0 <= x(2)(4)(2)(1)(1)#153 <= 1
 0 <= x(2)(4)(2)(2)(1)#154 <= 1
 0 <= x(2)(4)(2)(3)(1)#155 <= 1
 0 <= x(2)(5)(1)(1)(1)#156 <= 1
 0 <= x(2)(5)(1)(2)(1)#157 <= 1
 0 <= x(2)(5)(1)(3)(1)#158 <= 1
 0 <= x(2)(5)(2)(1)(1)#159 <= 1
 0 <= x(2)(5)(2)(2)(1)#160 <= 1
 0 <= x(2)(5)(2)(3)(1)#161 <= 1
 0 <= x(2)(6)(1)(1)(1)#162 <= 1
 0 <= x(2)(6)(1)(2)(1)#163 <= 1
 0 <= x(2)(6)(1)(3)(1)#164 <= 1
 0 <= x(2)(6)(2)(1)(1)#165 <= 1
 0 <= x(2)(6)(2)(2)(1)#166 <= 1
 0 <= x(2)(6)(2)(3)(1)#167 <= 1
 0 <= x(3)(4)(1)(1)(1)#168 <= 1
 0 <= x(3)(4)(1)(2)(1)#169 <= 1
 0 <= x(3)(4)(1)(3)(1)#170 <= 1
 0 <= x(3)(4)(2)(1)(1)#171 <= 1
 0 <= x(3)(4)(2)(2)(1)#172 <= 1
 0 <= x(3)(4)(2)(3)(1)#173 <= 1
 0 <= x(3)(5)(1)(1)(1)#174 <= 1
 0 <= x(3)(5)(1)(2)(1)#175 <= 1
 0 <= x(3)(5)(1)(3)(1)#176 <= 1
 0 <= x(3)(5)(2)(1)(1)#177 <= 1
 0 <= x(3)(5)(2)(2)(1)#178 <= 1
 0 <= x(3)(5)(2)(3)(1)#179 <= 1
 0 <= x(3)(6)(1)(1)(1)#180 <= 1
 0 <= x(3)(6)(1)(2)(1)#181 <= 1
 0 <= x(3)(6)(1)(3)(1)#182 <= 1
 0 <= x(3)(6)(2)(1)(1)#183 <= 1
 0 <= x(3)(6)(2)(2)(1)#184 <= 1
 0 <= x(3)(6)(2)(3)(1)#185 <= 1
 0 <= x(4)(5)(1)(1)(1)#186 <= 1
 0 <= x(4)(5)(1)(2)(1)#187 <= 1
 0 <= x(4)(5)(1)(3)(1)#188 <= 1
 0 <= x(4)(5)(2)(1)(1)#189 <= 1
 0 <= x(4)(5)(2)(2)(1)#190 <= 1
 0 <= x(4)(5)(2)(3)(1)#191 <= 1
 0 <= x(4)(6)(1)(1)(1)#192 <= 1
 0 <= x(4)(6)(1)(2)(1)#193 <= 1
 0 <= x(4)(6)(1)(3)(1)#194 <= 1
 0 <= x(4)(6)(2)(1)(1)#195 <= 1
 0 <= x(4)(6)(2)(2)(1)#196 <= 1
 0 <= x(4)(6)(2)(3)(1)#197 <= 1
 0 <= x(5)(6)(1)(1)(1)#198 <= 1
 0 <= x(5)(6)(1)(2)(1)#199 <= 1
 0 <= x(5)(6)(1)(3)(1)#200 <= 1
 0 <= x(5)(6)(2)(1)(1)#201 <= 1
 0 <= x(5)(6)(2)(2)(1)#202 <= 1
 0 <= x(5)(6)(2)(3)(1)#203 <= 1
Binaries
 y(1)#0  y(2)#1  y(3)#2  o(1)(1)#45  o(1)(2)#46  o(1)(3)#47  z(1)(1)(1)(1)#78 
 z(1)(1)(2)(1)#79  z(1)(1)(3)(1)#80  z(1)(2)(1)(1)#81  z(1)(2)(2)(1)#82 
 z(1)(2)(3)(1)#83  z(2)(1)(1)(1)#84  z(2)(1)(2)(1)#85  z(2)(1)(3)(1)#86 
 z(2)(2)(1)(1)#87  z(2)(2)(2)(1)#88  z(2)(2)(3)(1)#89  z(3)(1)(1)(1)#90 
 z(3)(1)(2)(1)#91  z(3)(1)(3)(1)#92  z(3)(2)(1)(1)#93  z(3)(2)(2)(1)#94 
 z(3)(2)(3)(1)#95  z(4)(1)(1)(1)#96  z(4)(1)(2)(1)#97  z(4)(1)(3)(1)#98 
 z(4)(2)(1)(1)#99  z(4)(2)(2)(1)#100  z(4)(2)(3)(1)#101  z(5)(1)(1)(1)#102 
 z(5)(1)(2)(1)#103  z(5)(1)(3)(1)#104  z(5)(2)(1)(1)#105  z(5)(2)(2)(1)#106 
 z(5)(2)(3)(1)#107  z(6)(1)(1)(1)#108  z(6)(1)(2)(1)#109  z(6)(1)(3)(1)#110 
 z(6)(2)(1)(1)#111  z(6)(2)(2)(1)#112  z(6)(2)(3)(1)#113  x(2)(3)(1)(1)(1)#144 
 x(2)(3)(1)(2)(1)#145  x(2)(3)(1)(3)(1)#146  x(2)(3)(2)(1)(1)#147 
 x(2)(3)(2)(2)(1)#148  x(2)(3)(2)(3)(1)#149  x(2)(4)(1)(1)(1)#150 
 x(2)(4)(1)(2)(1)#151  x(2)(4)(1)(3)(1)#152  x(2)(4)(2)(1)(1)#153 
 x(2)(4)(2)(2)(1)#154  x(2)(4)(2)(3)(1)#155  x(2)(5)(1)(1)(1)#156 
 x(2)(5)(1)(2)(1)#157  x(2)(5)(1)(3)(1)#158  x(2)(5)(2)(1)(1)#159 
 x(2)(5)(2)(2)(1)#160  x(2)(5)(2)(3)(1)#161  x(2)(6)(1)(1)(1)#162 
 x(2)(6)(1)(2)(1)#163  x(2)(6)(1)(3)(1)#164  x(2)(6)(2)(1)(1)#165 
 x(2)(6)(2)(2)(1)#166  x(2)(6)(2)(3)(1)#167  x(3)(4)(1)(1)(1)#168 
 x(3)(4)(1)(2)(1)#169  x(3)(4)(1)(3)(1)#170  x(3)(4)(2)(1)(1)#171 
 x(3)(4)(2)(2)(1)#172  x(3)(4)(2)(3)(1)#173  x(3)(5)(1)(1)(1)#174 
 x(3)(5)(1)(2)(1)#175  x(3)(5)(1)(3)(1)#176  x(3)(5)(2)(1)(1)#177 
 x(3)(5)(2)(2)(1)#178  x(3)(5)(2)(3)(1)#179  x(3)(6)(1)(1)(1)#180 
 x(3)(6)(1)(2)(1)#181  x(3)(6)(1)(3)(1)#182  x(3)(6)(2)(1)(1)#183 
 x(3)(6)(2)(2)(1)#184  x(3)(6)(2)(3)(1)#185  x(4)(5)(1)(1)(1)#186 
 x(4)(5)(1)(2)(1)#187  x(4)(5)(1)(3)(1)#188  x(4)(5)(2)(1)(1)#189 
 x(4)(5)(2)(2)(1)#190  x(4)(5)(2)(3)(1)#191  x(4)(6)(1)(1)(1)#192 
 x(4)(6)(1)(2)(1)#193  x(4)(6)(1)(3)(1)#194  x(4)(6)(2)(1)(1)#195 
 x(4)(6)(2)(2)(1)#196  x(4)(6)(2)(3)(1)#197  x(5)(6)(1)(1)(1)#198 
 x(5)(6)(1)(2)(1)#199  x(5)(6)(1)(3)(1)#200  x(5)(6)(2)(1)(1)#201 
 x(5)(6)(2)(2)(1)#202  x(5)(6)(2)(3)(1)#203 
Generals
 x(1)(2)(1)(1)(1)#114  x(1)(2)(1)(2)(1)#115  x(1)(2)(1)(3)(1)#116 
 x(1)(2)(2)(1)(1)#117  x(1)(2)(2)(2)(1)#118  x(1)(2)(2)(3)(1)#119 
 x(1)(3)(1)(1)(1)#120  x(1)(3)(1)(2)(1)#121  x(1)(3)(1)(3)(1)#122 
 x(1)(3)(2)(1)(1)#123  x(1)(3)(2)(2)(1)#124  x(1)(3)(2)(3)(1)#125 
 x(1)(4)(1)(1)(1)#126  x(1)(4)(1)(2)(1)#127  x(1)(4)(1)(3)(1)#128 
 x(1)(4)(2)(1)(1)#129  x(1)(4)(2)(2)(1)#130  x(1)(4)(2)(3)(1)#131 
 x(1)(5)(1)(1)(1)#132  x(1)(5)(1)(2)(1)#133  x(1)(5)(1)(3)(1)#134 
 x(1)(5)(2)(1)(1)#135  x(1)(5)(2)(2)(1)#136  x(1)(5)(2)(3)(1)#137 
 x(1)(6)(1)(1)(1)#138  x(1)(6)(1)(2)(1)#139  x(1)(6)(1)(3)(1)#140 
 x(1)(6)(2)(1)(1)#141  x(1)(6)(2)(2)(1)#142  x(1)(6)(2)(3)(1)#143 
End
